c 
c G(k,n,p) graph
c graph gen seed     : 213987
c number of vertices : 80
c max number of edges: 1600
c number of classes  : 2
c edge density       : 0.400000
c edge probability   : 0.800000
c data structure     : dense
c
c           Graph Stats
c number of vertices  : 80
c nonisolated vertices: 80
c number of edges     : 1235
c edge density        : 0.390823
c max degree          : 44
c avg degree          : 30.88
c min degree          : 20
p col 80 1235
e 1 3
e 1 4
e 1 5
e 1 6
e 1 7
e 1 8
e 1 9
e 1 11
e 1 13
e 1 14
e 1 17
e 1 20
e 1 22
e 1 25
e 1 28
e 1 34
e 1 35
e 1 38
e 1 41
e 1 43
e 1 44
e 1 45
e 1 48
e 1 49
e 1 50
e 1 52
e 1 53
e 1 57
e 1 58
e 1 62
e 1 63
e 1 64
e 1 67
e 1 69
e 1 70
e 1 72
e 1 73
e 1 74
e 1 75
e 1 76
e 1 79
e 1 80
e 2 4
e 2 6
e 2 7
e 2 8
e 2 10
e 2 12
e 2 13
e 2 15
e 2 16
e 2 18
e 2 19
e 2 20
e 2 21
e 2 23
e 2 24
e 2 25
e 2 26
e 2 27
e 2 28
e 2 29
e 2 30
e 2 31
e 2 32
e 2 33
e 2 34
e 2 36
e 2 37
e 2 39
e 2 40
e 2 41
e 2 42
e 2 45
e 2 46
e 2 47
e 2 49
e 2 50
e 2 51
e 2 54
e 2 55
e 2 56
e 2 59
e 2 60
e 2 61
e 2 63
e 2 64
e 2 65
e 2 66
e 2 68
e 2 70
e 2 71
e 2 73
e 2 77
e 2 78
e 2 79
e 3 4
e 3 5
e 3 7
e 3 8
e 3 9
e 3 11
e 3 14
e 3 17
e 3 21
e 3 22
e 3 24
e 3 31
e 3 35
e 3 38
e 3 43
e 3 44
e 3 45
e 3 48
e 3 51
e 3 52
e 3 53
e 3 54
e 3 57
e 3 58
e 3 62
e 3 64
e 3 67
e 3 69
e 3 70
e 3 72
e 3 73
e 3 74
e 3 75
e 3 76
e 3 78
e 3 80
e 4 5
e 4 8
e 4 9
e 4 11
e 4 14
e 4 17
e 4 22
e 4 23
e 4 25
e 4 35
e 4 38
e 4 39
e 4 40
e 4 43
e 4 44
e 4 45
e 4 46
e 4 47
e 4 48
e 4 50
e 4 52
e 4 53
e 4 57
e 4 58
e 4 61
e 4 62
e 4 64
e 4 66
e 4 67
e 4 69
e 4 70
e 4 71
e 4 72
e 4 73
e 4 74
e 4 75
e 4 76
e 4 80
e 5 8
e 5 9
e 5 11
e 5 14
e 5 17
e 5 22
e 5 27
e 5 28
e 5 35
e 5 38
e 5 40
e 5 43
e 5 44
e 5 45
e 5 48
e 5 52
e 5 53
e 5 57
e 5 58
e 5 62
e 5 64
e 5 65
e 5 66
e 5 67
e 5 69
e 5 70
e 5 72
e 5 73
e 5 74
e 5 75
e 5 76
e 5 77
e 5 79
e 5 80
e 6 7
e 6 10
e 6 12
e 6 13
e 6 15
e 6 16
e 6 18
e 6 19
e 6 20
e 6 21
e 6 23
e 6 24
e 6 25
e 6 26
e 6 27
e 6 28
e 6 29
e 6 30
e 6 31
e 6 32
e 6 33
e 6 34
e 6 36
e 6 37
e 6 39
e 6 40
e 6 41
e 6 42
e 6 43
e 6 44
e 6 46
e 6 47
e 6 49
e 6 50
e 6 51
e 6 54
e 6 55
e 6 56
e 6 59
e 6 60
e 6 61
e 6 63
e 6 65
e 6 66
e 6 68
e 6 71
e 6 73
e 6 74
e 6 77
e 6 78
e 6 79
e 7 10
e 7 12
e 7 13
e 7 15
e 7 16
e 7 18
e 7 19
e 7 20
e 7 21
e 7 22
e 7 23
e 7 24
e 7 25
e 7 26
e 7 27
e 7 28
e 7 29
e 7 30
e 7 31
e 7 32
e 7 33
e 7 34
e 7 35
e 7 36
e 7 37
e 7 39
e 7 40
e 7 41
e 7 42
e 7 46
e 7 47
e 7 48
e 7 49
e 7 50
e 7 51
e 7 54
e 7 55
e 7 56
e 7 59
e 7 60
e 7 61
e 7 62
e 7 63
e 7 65
e 7 66
e 7 68
e 7 70
e 7 71
e 7 73
e 7 77
e 7 78
e 7 79
e 8 9
e 8 10
e 8 11
e 8 14
e 8 16
e 8 17
e 8 22
e 8 23
e 8 27
e 8 34
e 8 35
e 8 38
e 8 43
e 8 44
e 8 45
e 8 48
e 8 52
e 8 53
e 8 55
e 8 57
e 8 58
e 8 62
e 8 64
e 8 67
e 8 69
e 8 70
e 8 71
e 8 72
e 8 73
e 8 74
e 8 75
e 8 76
e 8 80
e 9 11
e 9 14
e 9 16
e 9 17
e 9 18
e 9 22
e 9 23
e 9 27
e 9 29
e 9 35
e 9 37
e 9 38
e 9 39
e 9 41
e 9 42
e 9 43
e 9 44
e 9 45
e 9 48
e 9 52
e 9 53
e 9 54
e 9 57
e 9 58
e 9 62
e 9 64
e 9 67
e 9 69
e 9 70
e 9 72
e 9 73
e 9 74
e 9 75
e 9 76
e 9 80
e 10 12
e 10 13
e 10 15
e 10 16
e 10 18
e 10 19
e 10 20
e 10 21
e 10 23
e 10 24
e 10 25
e 10 26
e 10 27
e 10 28
e 10 29
e 10 30
e 10 31
e 10 32
e 10 33
e 10 34
e 10 35
e 10 36
e 10 37
e 10 38
e 10 39
e 10 40
e 10 41
e 10 42
e 10 46
e 10 47
e 10 49
e 10 50
e 10 51
e 10 52
e 10 54
e 10 55
e 10 56
e 10 59
e 10 60
e 10 61
e 10 63
e 10 65
e 10 66
e 10 68
e 10 71
e 10 75
e 10 76
e 10 77
e 10 78
e 10 79
e 11 14
e 11 17
e 11 18
e 11 22
e 11 31
e 11 34
e 11 35
e 11 37
e 11 38
e 11 40
e 11 43
e 11 44
e 11 45
e 11 47
e 11 48
e 11 49
e 11 52
e 11 53
e 11 57
e 11 58
e 11 62
e 11 64
e 11 67
e 11 69
e 11 70
e 11 72
e 11 73
e 11 74
e 11 75
e 11 76
e 11 80
e 12 13
e 12 15
e 12 16
e 12 18
e 12 19
e 12 20
e 12 21
e 12 23
e 12 24
e 12 25
e 12 26
e 12 27
e 12 28
e 12 29
e 12 30
e 12 31
e 12 32
e 12 33
e 12 34
e 12 36
e 12 37
e 12 39
e 12 40
e 12 41
e 12 42
e 12 45
e 12 46
e 12 47
e 12 49
e 12 50
e 12 51
e 12 54
e 12 55
e 12 56
e 12 59
e 12 60
e 12 61
e 12 63
e 12 65
e 12 66
e 12 68
e 12 71
e 12 77
e 12 78
e 12 79
e 12 80
e 13 15
e 13 16
e 13 18
e 13 19
e 13 20
e 13 21
e 13 23
e 13 24
e 13 25
e 13 26
e 13 27
e 13 28
e 13 29
e 13 30
e 13 31
e 13 32
e 13 33
e 13 34
e 13 36
e 13 37
e 13 39
e 13 40
e 13 41
e 13 42
e 13 46
e 13 47
e 13 49
e 13 50
e 13 51
e 13 52
e 13 53
e 13 54
e 13 55
e 13 56
e 13 59
e 13 60
e 13 61
e 13 63
e 13 64
e 13 65
e 13 66
e 13 68
e 13 71
e 13 72
e 13 77
e 13 78
e 13 79
e 14 15
e 14 17
e 14 20
e 14 22
e 14 28
e 14 32
e 14 35
e 14 38
e 14 43
e 14 44
e 14 45
e 14 48
e 14 52
e 14 53
e 14 54
e 14 56
e 14 57
e 14 58
e 14 60
e 14 62
e 14 64
e 14 66
e 14 67
e 14 69
e 14 70
e 14 72
e 14 73
e 14 74
e 14 75
e 14 76
e 14 78
e 14 80
e 15 16
e 15 18
e 15 19
e 15 20
e 15 21
e 15 23
e 15 24
e 15 25
e 15 26
e 15 27
e 15 28
e 15 29
e 15 30
e 15 31
e 15 32
e 15 33
e 15 34
e 15 36
e 15 37
e 15 39
e 15 40
e 15 41
e 15 42
e 15 46
e 15 47
e 15 49
e 15 50
e 15 51
e 15 53
e 15 54
e 15 55
e 15 56
e 15 59
e 15 60
e 15 61
e 15 63
e 15 65
e 15 66
e 15 68
e 15 70
e 15 71
e 15 72
e 15 76
e 15 77
e 15 78
e 15 79
e 16 17
e 16 18
e 16 19
e 16 20
e 16 21
e 16 23
e 16 24
e 16 25
e 16 26
e 16 27
e 16 28
e 16 29
e 16 30
e 16 31
e 16 32
e 16 33
e 16 34
e 16 36
e 16 37
e 16 39
e 16 40
e 16 41
e 16 42
e 16 46
e 16 47
e 16 49
e 16 50
e 16 51
e 16 54
e 16 55
e 16 56
e 16 59
e 16 60
e 16 61
e 16 63
e 16 65
e 16 66
e 16 68
e 16 71
e 16 72
e 16 75
e 16 77
e 16 78
e 16 79
e 17 22
e 17 27
e 17 30
e 17 32
e 17 35
e 17 37
e 17 38
e 17 43
e 17 44
e 17 45
e 17 48
e 17 49
e 17 52
e 17 53
e 17 54
e 17 57
e 17 58
e 17 62
e 17 64
e 17 66
e 17 67
e 17 69
e 17 70
e 17 72
e 17 73
e 17 74
e 17 75
e 17 76
e 17 80
e 18 19
e 18 20
e 18 21
e 18 23
e 18 24
e 18 25
e 18 26
e 18 27
e 18 28
e 18 29
e 18 30
e 18 31
e 18 32
e 18 33
e 18 34
e 18 36
e 18 37
e 18 39
e 18 40
e 18 41
e 18 42
e 18 46
e 18 47
e 18 49
e 18 50
e 18 51
e 18 53
e 18 54
e 18 55
e 18 56
e 18 59
e 18 60
e 18 61
e 18 63
e 18 65
e 18 66
e 18 67
e 18 68
e 18 71
e 18 74
e 18 77
e 18 78
e 18 79
e 19 20
e 19 21
e 19 23
e 19 24
e 19 25
e 19 26
e 19 27
e 19 28
e 19 29
e 19 30
e 19 31
e 19 32
e 19 33
e 19 34
e 19 36
e 19 37
e 19 38
e 19 39
e 19 40
e 19 41
e 19 42
e 19 46
e 19 47
e 19 48
e 19 49
e 19 50
e 19 51
e 19 53
e 19 54
e 19 55
e 19 56
e 19 59
e 19 60
e 19 61
e 19 63
e 19 65
e 19 66
e 19 68
e 19 71
e 19 76
e 19 77
e 19 78
e 19 79
e 20 21
e 20 22
e 20 23
e 20 24
e 20 25
e 20 26
e 20 27
e 20 28
e 20 29
e 20 30
e 20 31
e 20 32
e 20 33
e 20 34
e 20 36
e 20 37
e 20 38
e 20 39
e 20 40
e 20 41
e 20 42
e 20 43
e 20 45
e 20 46
e 20 47
e 20 49
e 20 50
e 20 51
e 20 53
e 20 54
e 20 55
e 20 56
e 20 57
e 20 59
e 20 60
e 20 61
e 20 63
e 20 65
e 20 66
e 20 68
e 20 71
e 20 73
e 20 74
e 20 76
e 20 77
e 20 78
e 20 79
e 21 23
e 21 24
e 21 25
e 21 26
e 21 27
e 21 28
e 21 29
e 21 30
e 21 31
e 21 32
e 21 33
e 21 34
e 21 36
e 21 37
e 21 39
e 21 40
e 21 41
e 21 42
e 21 45
e 21 46
e 21 47
e 21 49
e 21 50
e 21 51
e 21 54
e 21 55
e 21 56
e 21 58
e 21 59
e 21 60
e 21 61
e 21 62
e 21 63
e 21 65
e 21 66
e 21 68
e 21 71
e 21 76
e 21 77
e 21 78
e 21 79
e 22 31
e 22 35
e 22 38
e 22 43
e 22 44
e 22 45
e 22 48
e 22 52
e 22 53
e 22 57
e 22 58
e 22 62
e 22 64
e 22 65
e 22 66
e 22 67
e 22 69
e 22 70
e 22 72
e 22 73
e 22 74
e 22 75
e 22 76
e 22 80
e 23 24
e 23 25
e 23 26
e 23 27
e 23 28
e 23 29
e 23 30
e 23 31
e 23 32
e 23 33
e 23 34
e 23 35
e 23 36
e 23 37
e 23 39
e 23 40
e 23 41
e 23 42
e 23 46
e 23 47
e 23 49
e 23 50
e 23 51
e 23 54
e 23 55
e 23 56
e 23 59
e 23 60
e 23 61
e 23 63
e 23 65
e 23 66
e 23 67
e 23 68
e 23 71
e 23 73
e 23 74
e 23 77
e 23 78
e 23 79
e 24 25
e 24 26
e 24 27
e 24 28
e 24 29
e 24 30
e 24 31
e 24 32
e 24 33
e 24 34
e 24 36
e 24 37
e 24 38
e 24 39
e 24 40
e 24 41
e 24 42
e 24 45
e 24 46
e 24 47
e 24 49
e 24 50
e 24 51
e 24 52
e 24 54
e 24 55
e 24 56
e 24 59
e 24 60
e 24 61
e 24 62
e 24 63
e 24 65
e 24 66
e 24 68
e 24 71
e 24 75
e 24 77
e 24 78
e 24 79
e 25 26
e 25 27
e 25 28
e 25 29
e 25 30
e 25 31
e 25 32
e 25 33
e 25 34
e 25 36
e 25 37
e 25 39
e 25 40
e 25 41
e 25 42
e 25 44
e 25 46
e 25 47
e 25 48
e 25 49
e 25 50
e 25 51
e 25 54
e 25 55
e 25 56
e 25 58
e 25 59
e 25 60
e 25 61
e 25 63
e 25 65
e 25 66
e 25 68
e 25 71
e 25 72
e 25 74
e 25 77
e 25 78
e 25 79
e 25 80
e 26 27
e 26 28
e 26 29
e 26 30
e 26 31
e 26 32
e 26 33
e 26 34
e 26 36
e 26 37
e 26 39
e 26 40
e 26 41
e 26 42
e 26 43
e 26 46
e 26 47
e 26 48
e 26 49
e 26 50
e 26 51
e 26 54
e 26 55
e 26 56
e 26 59
e 26 60
e 26 61
e 26 63
e 26 64
e 26 65
e 26 66
e 26 67
e 26 68
e 26 71
e 26 75
e 26 77
e 26 78
e 26 79
e 27 28
e 27 29
e 27 30
e 27 31
e 27 32
e 27 33
e 27 34
e 27 36
e 27 37
e 27 39
e 27 40
e 27 41
e 27 42
e 27 46
e 27 47
e 27 49
e 27 50
e 27 51
e 27 54
e 27 55
e 27 56
e 27 57
e 27 59
e 27 60
e 27 61
e 27 62
e 27 63
e 27 65
e 27 66
e 27 68
e 27 70
e 27 71
e 27 75
e 27 77
e 27 78
e 27 79
e 27 80
e 28 29
e 28 30
e 28 31
e 28 32
e 28 33
e 28 34
e 28 36
e 28 37
e 28 39
e 28 40
e 28 41
e 28 42
e 28 46
e 28 47
e 28 49
e 28 50
e 28 51
e 28 53
e 28 54
e 28 55
e 28 56
e 28 57
e 28 59
e 28 60
e 28 61
e 28 63
e 28 64
e 28 65
e 28 66
e 28 68
e 28 71
e 28 73
e 28 77
e 28 78
e 28 79
e 29 30
e 29 31
e 29 32
e 29 33
e 29 34
e 29 36
e 29 37
e 29 39
e 29 40
e 29 41
e 29 42
e 29 46
e 29 47
e 29 48
e 29 49
e 29 50
e 29 51
e 29 54
e 29 55
e 29 56
e 29 59
e 29 60
e 29 61
e 29 63
e 29 65
e 29 66
e 29 68
e 29 71
e 29 72
e 29 77
e 29 78
e 29 79
e 29 80
e 30 31
e 30 32
e 30 33
e 30 34
e 30 35
e 30 36
e 30 37
e 30 39
e 30 40
e 30 41
e 30 42
e 30 46
e 30 47
e 30 49
e 30 50
e 30 51
e 30 54
e 30 55
e 30 56
e 30 57
e 30 59
e 30 60
e 30 61
e 30 62
e 30 63
e 30 65
e 30 66
e 30 68
e 30 71
e 30 73
e 30 77
e 30 78
e 30 79
e 31 32
e 31 33
e 31 34
e 31 35
e 31 36
e 31 37
e 31 39
e 31 40
e 31 41
e 31 42
e 31 46
e 31 47
e 31 49
e 31 50
e 31 51
e 31 52
e 31 54
e 31 55
e 31 56
e 31 57
e 31 59
e 31 60
e 31 61
e 31 62
e 31 63
e 31 64
e 31 65
e 31 66
e 31 68
e 31 71
e 31 72
e 31 73
e 31 74
e 31 77
e 31 78
e 31 79
e 32 33
e 32 34
e 32 36
e 32 37
e 32 39
e 32 40
e 32 41
e 32 42
e 32 46
e 32 47
e 32 49
e 32 50
e 32 51
e 32 53
e 32 54
e 32 55
e 32 56
e 32 59
e 32 60
e 32 61
e 32 63
e 32 65
e 32 66
e 32 68
e 32 71
e 32 76
e 32 77
e 32 78
e 32 79
e 33 34
e 33 36
e 33 37
e 33 39
e 33 40
e 33 41
e 33 42
e 33 46
e 33 47
e 33 48
e 33 49
e 33 50
e 33 51
e 33 54
e 33 55
e 33 56
e 33 59
e 33 60
e 33 61
e 33 62
e 33 63
e 33 65
e 33 66
e 33 68
e 33 71
e 33 72
e 33 74
e 33 77
e 33 78
e 33 79
e 34 36
e 34 37
e 34 38
e 34 39
e 34 40
e 34 41
e 34 42
e 34 46
e 34 47
e 34 49
e 34 50
e 34 51
e 34 52
e 34 54
e 34 55
e 34 56
e 34 58
e 34 59
e 34 60
e 34 61
e 34 63
e 34 64
e 34 65
e 34 66
e 34 68
e 34 70
e 34 71
e 34 72
e 34 73
e 34 77
e 34 78
e 34 79
e 35 38
e 35 43
e 35 44
e 35 45
e 35 48
e 35 51
e 35 52
e 35 53
e 35 57
e 35 58
e 35 60
e 35 62
e 35 64
e 35 67
e 35 68
e 35 69
e 35 70
e 35 72
e 35 73
e 35 74
e 35 75
e 35 76
e 35 77
e 35 80
e 36 37
e 36 39
e 36 40
e 36 41
e 36 42
e 36 43
e 36 45
e 36 46
e 36 47
e 36 49
e 36 50
e 36 51
e 36 54
e 36 55
e 36 56
e 36 59
e 36 60
e 36 61
e 36 62
e 36 63
e 36 65
e 36 66
e 36 68
e 36 71
e 36 74
e 36 77
e 36 78
e 36 79
e 37 39
e 37 40
e 37 41
e 37 42
e 37 44
e 37 46
e 37 47
e 37 48
e 37 49
e 37 50
e 37 51
e 37 52
e 37 54
e 37 55
e 37 56
e 37 59
e 37 60
e 37 61
e 37 63
e 37 65
e 37 66
e 37 68
e 37 71
e 37 77
e 37 78
e 37 79
e 38 40
e 38 42
e 38 43
e 38 44
e 38 45
e 38 48
e 38 51
e 38 52
e 38 53
e 38 57
e 38 58
e 38 62
e 38 64
e 38 65
e 38 67
e 38 68
e 38 69
e 38 70
e 38 72
e 38 73
e 38 74
e 38 75
e 38 76
e 38 80
e 39 40
e 39 41
e 39 42
e 39 44
e 39 46
e 39 47
e 39 49
e 39 50
e 39 51
e 39 53
e 39 54
e 39 55
e 39 56
e 39 57
e 39 59
e 39 60
e 39 61
e 39 62
e 39 63
e 39 65
e 39 66
e 39 68
e 39 71
e 39 73
e 39 77
e 39 78
e 39 79
e 40 41
e 40 42
e 40 46
e 40 47
e 40 49
e 40 50
e 40 51
e 40 54
e 40 55
e 40 56
e 40 58
e 40 59
e 40 60
e 40 61
e 40 62
e 40 63
e 40 65
e 40 66
e 40 68
e 40 69
e 40 71
e 40 77
e 40 78
e 40 79
e 41 42
e 41 44
e 41 46
e 41 47
e 41 48
e 41 49
e 41 50
e 41 51
e 41 53
e 41 54
e 41 55
e 41 56
e 41 59
e 41 60
e 41 61
e 41 63
e 41 65
e 41 66
e 41 68
e 41 69
e 41 71
e 41 73
e 41 77
e 41 78
e 41 79
e 42 45
e 42 46
e 42 47
e 42 48
e 42 49
e 42 50
e 42 51
e 42 54
e 42 55
e 42 56
e 42 59
e 42 60
e 42 61
e 42 63
e 42 65
e 42 66
e 42 67
e 42 68
e 42 71
e 42 77
e 42 78
e 42 79
e 43 44
e 43 45
e 43 47
e 43 48
e 43 52
e 43 53
e 43 54
e 43 57
e 43 58
e 43 60
e 43 61
e 43 62
e 43 64
e 43 67
e 43 69
e 43 70
e 43 71
e 43 72
e 43 73
e 43 74
e 43 75
e 43 76
e 43 77
e 43 80
e 44 45
e 44 48
e 44 52
e 44 53
e 44 57
e 44 58
e 44 59
e 44 62
e 44 64
e 44 67
e 44 69
e 44 70
e 44 72
e 44 73
e 44 74
e 44 75
e 44 76
e 44 80
e 45 48
e 45 52
e 45 53
e 45 54
e 45 57
e 45 58
e 45 62
e 45 64
e 45 67
e 45 69
e 45 70
e 45 72
e 45 73
e 45 74
e 45 75
e 45 76
e 45 77
e 45 80
e 46 47
e 46 48
e 46 49
e 46 50
e 46 51
e 46 53
e 46 54
e 46 55
e 46 56
e 46 59
e 46 60
e 46 61
e 46 63
e 46 65
e 46 66
e 46 68
e 46 71
e 46 72
e 46 73
e 46 77
e 46 78
e 46 79
e 47 49
e 47 50
e 47 51
e 47 53
e 47 54
e 47 55
e 47 56
e 47 59
e 47 60
e 47 61
e 47 62
e 47 63
e 47 65
e 47 66
e 47 68
e 47 70
e 47 71
e 47 74
e 47 77
e 47 78
e 47 79
e 48 52
e 48 53
e 48 54
e 48 57
e 48 58
e 48 62
e 48 64
e 48 67
e 48 69
e 48 70
e 48 72
e 48 73
e 48 74
e 48 75
e 48 76
e 48 80
e 49 50
e 49 51
e 49 54
e 49 55
e 49 56
e 49 59
e 49 60
e 49 61
e 49 63
e 49 65
e 49 66
e 49 68
e 49 71
e 49 73
e 49 77
e 49 78
e 49 79
e 50 51
e 50 54
e 50 55
e 50 56
e 50 59
e 50 60
e 50 61
e 50 63
e 50 65
e 50 66
e 50 67
e 50 68
e 50 71
e 50 72
e 50 76
e 50 77
e 50 78
e 50 79
e 50 80
e 51 54
e 51 55
e 51 56
e 51 58
e 51 59
e 51 60
e 51 61
e 51 62
e 51 63
e 51 65
e 51 66
e 51 68
e 51 71
e 51 77
e 51 78
e 51 79
e 52 53
e 52 57
e 52 58
e 52 60
e 52 62
e 52 64
e 52 67
e 52 69
e 52 70
e 52 72
e 52 73
e 52 74
e 52 75
e 52 76
e 52 77
e 52 80
e 53 57
e 53 58
e 53 62
e 53 64
e 53 67
e 53 69
e 53 70
e 53 72
e 53 73
e 53 74
e 53 75
e 53 76
e 53 80
e 54 55
e 54 56
e 54 57
e 54 59
e 54 60
e 54 61
e 54 63
e 54 65
e 54 66
e 54 68
e 54 71
e 54 77
e 54 78
e 54 79
e 54 80
e 55 56
e 55 59
e 55 60
e 55 61
e 55 63
e 55 65
e 55 66
e 55 68
e 55 69
e 55 71
e 55 77
e 55 78
e 55 79
e 55 80
e 56 58
e 56 59
e 56 60
e 56 61
e 56 63
e 56 65
e 56 66
e 56 68
e 56 69
e 56 71
e 56 77
e 56 78
e 56 79
e 57 58
e 57 61
e 57 62
e 57 64
e 57 67
e 57 69
e 57 70
e 57 72
e 57 73
e 57 74
e 57 75
e 57 76
e 57 79
e 57 80
e 58 62
e 58 63
e 58 64
e 58 65
e 58 67
e 58 69
e 58 70
e 58 72
e 58 73
e 58 74
e 58 75
e 58 76
e 58 78
e 58 80
e 59 60
e 59 61
e 59 62
e 59 63
e 59 65
e 59 66
e 59 68
e 59 69
e 59 70
e 59 71
e 59 72
e 59 77
e 59 78
e 59 79
e 60 61
e 60 63
e 60 65
e 60 66
e 60 68
e 60 71
e 60 75
e 60 77
e 60 78
e 60 79
e 60 80
e 61 63
e 61 65
e 61 66
e 61 68
e 61 71
e 61 77
e 61 78
e 61 79
e 61 80
e 62 64
e 62 65
e 62 67
e 62 69
e 62 70
e 62 72
e 62 73
e 62 74
e 62 75
e 62 76
e 62 80
e 63 65
e 63 66
e 63 67
e 63 68
e 63 71
e 63 76
e 63 77
e 63 78
e 63 79
e 64 67
e 64 69
e 64 70
e 64 72
e 64 73
e 64 74
e 64 75
e 64 76
e 64 80
e 65 66
e 65 68
e 65 69
e 65 71
e 65 77
e 65 78
e 65 79
e 65 80
e 66 68
e 66 71
e 66 72
e 66 76
e 66 77
e 66 78
e 66 79
e 67 69
e 67 70
e 67 72
e 67 73
e 67 74
e 67 75
e 67 76
e 67 80
e 68 71
e 68 72
e 68 77
e 68 78
e 68 79
e 69 70
e 69 72
e 69 73
e 69 74
e 69 75
e 69 76
e 69 80
e 70 72
e 70 73
e 70 74
e 70 75
e 70 76
e 70 79
e 70 80
e 71 73
e 71 74
e 71 77
e 71 78
e 71 79
e 72 73
e 72 74
e 72 75
e 72 76
e 72 78
e 72 80
e 73 74
e 73 75
e 73 76
e 73 78
e 73 80
e 74 75
e 74 76
e 74 79
e 74 80
e 75 76
e 75 80
e 76 77
e 76 78
e 76 80
e 77 78
e 77 79
e 78 79
e 78 80
